Route #1: 77 23 44 26 11 64 40 53
Route #2: 10 68 18 25 42 16 66 60 6
Route #3: 41 14 36 4 59 35 55 33 13 9
Route #4: 28 19 74 48 39 61 50
Route #5: 62 54 20 3 73 32 7
Route #6: 76 31 45 46 34 12
Route #7: 8 71 22 15 51 57 29
Route #8: 63 5 30 70 37 75 49
Route #9: 2 27 65 47 56 67 69
Route #10: 1 52 24 21 43 38 58 72 17
Cost 1275